NAME: tsp10_11
COMMENT: 10-tsp problem (Padberg/Rinaldi)
TYPE: TSP
DIMENSION: 10
EDGE_WEIGHT_TYPE : EUC_2D
NODE_COORD_SECTION
1 20 5
2 23 32
3 39 2
4 10 34
5 30 30
6 6 13
7 23 33
8 11 15
9 17 32
10 21 10
